Y3Fe2(FeO4)3
1.0
       12.3999996185         0.0000000000         0.0000000000
        0.0000000000        12.3999996185         0.0000000000
        0.0000000000         0.0000000000        12.3999996185
   Fe_a   Fe_d    O
   16   24   96
Direct
     0.000000000         0.000000000         0.000000000
     0.500000000         0.000000000         0.500000000
     0.000000000         0.500000000         0.500000000
     0.500000000         0.500000000         0.000000000
     0.750000000         0.250000000         0.250000000
     0.250000000         0.750000000         0.750000000
     0.750000000         0.750000000         0.750000000
     0.250000000         0.250000000         0.250000000
     0.250000000         0.250000000         0.750000000
     0.750000000         0.750000000         0.250000000
     0.250000000         0.750000000         0.250000000
     0.750000000         0.250000000         0.750000000
     0.500000000         0.500000000         0.500000000
     0.000000000         0.500000000         0.000000000
     0.500000000         0.000000000         0.000000000
     0.000000000         0.000000000         0.500000000
     0.375000000         0.000000000         0.250000000
     0.625000000         0.000000000         0.750000000
     0.125000000         0.000000000         0.750000000
     0.875000000         0.000000000         0.250000000
     0.625000000         0.500000000         0.250000000
     0.375000000         0.500000000         0.750000000
     0.875000000         0.500000000         0.750000000
     0.125000000         0.500000000         0.250000000
     0.250000000         0.375000000         0.000000000
     0.750000000         0.625000000         0.000000000
     0.750000000         0.125000000         0.000000000
     0.250000000         0.875000000         0.000000000
     0.250000000         0.625000000         0.500000000
     0.750000000         0.375000000         0.500000000
     0.750000000         0.875000000         0.500000000
     0.250000000         0.125000000         0.500000000
     0.000000000         0.250000000         0.375000000
     0.000000000         0.750000000         0.625000000
     0.000000000         0.750000000         0.125000000
     0.000000000         0.250000000         0.875000000
     0.500000000         0.250000000         0.625000000
     0.500000000         0.750000000         0.375000000
     0.500000000         0.750000000         0.875000000
     0.500000000         0.250000000         0.125000000
     0.034010001         0.049010001         0.652779996
     0.965990007         0.950990021         0.347220004
     0.465990007         0.950990021         0.152779996
     0.534009993         0.049010001         0.847220004
     0.965990007         0.549009979         0.847220004
     0.034010001         0.450989991         0.152779996
     0.534009993         0.450989991         0.347220004
     0.465990007         0.549009979         0.652779996
     0.652779996         0.034010001         0.049010001
     0.347220004         0.965990007         0.950990021
     0.152779996         0.465990007         0.950990021
     0.847220004         0.534009993         0.049010001
     0.847220004         0.965990007         0.549009979
     0.152779996         0.034010001         0.450989991
     0.347220004         0.534009993         0.450989991
     0.652779996         0.465990007         0.549009979
     0.049010001         0.652779996         0.034010001
     0.950990021         0.347220004         0.965990007
     0.950990021         0.152779996         0.465990007
     0.049010001         0.847220004         0.534009993
     0.549009979         0.847220004         0.965990007
     0.450989991         0.152779996         0.034010001
     0.450989991         0.347220004         0.534009993
     0.549009979         0.652779996         0.465990007
     0.799009979         0.284009993         0.597220004
     0.200989991         0.715990007         0.402779996
     0.700990021         0.715990007         0.097220004
     0.299010009         0.284009993         0.902779996
     0.299010009         0.215990007         0.402779996
     0.700990021         0.784009993         0.597220004
     0.200989991         0.784009993         0.902779996
     0.799009979         0.215990007         0.097220004
     0.784009993         0.902779996         0.200989991
     0.215990007         0.097220004         0.799009979
     0.215990007         0.402779996         0.299010009
     0.784009993         0.597220004         0.700990021
     0.715990007         0.097220004         0.700990021
     0.284009993         0.902779996         0.299010009
     0.284009993         0.597220004         0.799009979
     0.715990007         0.402779996         0.200989991
     0.402779996         0.299010009         0.215990007
     0.597220004         0.700990021         0.784009993
     0.902779996         0.200989991         0.784009993
     0.097220004         0.799009979         0.215990007
     0.597220004         0.799009979         0.284009993
     0.402779996         0.200989991         0.715990007
     0.097220004         0.700990021         0.715990007
     0.902779996         0.299010009         0.284009993
     0.534009993         0.549009979         0.152779996
     0.465990007         0.450989991         0.847220004
     0.965990007         0.450989991         0.652779996
     0.034010001         0.549009979         0.347220004
     0.465990007         0.049010001         0.347220004
     0.534009993         0.950990021         0.652779996
     0.034010001         0.950990021         0.847220004
     0.965990007         0.049010001         0.152779996
     0.152779996         0.534009993         0.549009979
     0.847220004         0.465990007         0.450989991
     0.652779996         0.965990007         0.450989991
     0.347220004         0.034010001         0.549009979
     0.347220004         0.465990007         0.049010001
     0.652779996         0.534009993         0.950990021
     0.847220004         0.034010001         0.950990021
     0.152779996         0.965990007         0.049010001
     0.549009979         0.152779996         0.534009993
     0.450989991         0.847220004         0.465990007
     0.450989991         0.652779996         0.965990007
     0.549009979         0.347220004         0.034010001
     0.049010001         0.347220004         0.465990007
     0.950990021         0.652779996         0.534009993
     0.950990021         0.847220004         0.034010001
     0.049010001         0.152779996         0.965990007
     0.299010009         0.784009993         0.097220004
     0.700990021         0.215990007         0.902779996
     0.200989991         0.215990007         0.597220004
     0.799009979         0.784009993         0.402779996
     0.799009979         0.715990007         0.902779996
     0.200989991         0.284009993         0.097220004
     0.700990021         0.284009993         0.402779996
     0.299010009         0.715990007         0.597220004
     0.284009993         0.402779996         0.700990021
     0.715990007         0.597220004         0.299010009
     0.715990007         0.902779996         0.799009979
     0.284009993         0.097220004         0.200989991
     0.215990007         0.597220004         0.200989991
     0.784009993         0.402779996         0.799009979
     0.784009993         0.097220004         0.299010009
     0.215990007         0.902779996         0.700990021
     0.902779996         0.799009979         0.715990007
     0.097220004         0.200989991         0.284009993
     0.402779996         0.700990021         0.284009993
     0.597220004         0.299010009         0.715990007
     0.097220004         0.299010009         0.784009993
     0.902779996         0.700990021         0.215990007
     0.597220004         0.200989991         0.215990007
     0.402779996         0.799009979         0.784009993
